Total weight: 1307.5853986582858
Route 1: 0 28 12 76 79 29 24 54 80 68 0 
Route 2: 0 60 84 5 6 0 
Route 3: 0 87 16 86 17 0 
Route 4: 0 19 64 63 90 32 20 70 1 0 
Route 5: 0 21 56 23 67 39 25 55 4 0 
Route 6: 0 30 51 81 35 34 78 0 
Route 7: 0 42 14 44 38 43 97 37 100 91 93 0 
Route 8: 0 83 45 47 49 36 46 48 0 
Route 9: 0 27 69 31 7 82 8 18 89 0 
Route 10: 0 33 9 71 65 66 0 
Route 11: 0 73 72 75 41 22 74 0 
Route 12: 0 26 50 3 77 0 
Route 13: 0 52 88 62 11 10 0 
Route 14: 0 95 59 92 98 85 61 99 96 94 13 0 
Route 15: 0 2 15 57 40 53 58 0 
